SumColouring/JavaBacktracker/RandomInstances/14_0.60_2.col
c File: instances/14_0.60_2.col
c
c Description: Random graph of size 14 vertices and P(0.6) of edges between any two vertices.
p col 14 91
e 1 2
e 1 3
e 1 7
e 1 8
e 1 9
e 1 10
e 1 11
e 1 13
e 2 9
e 2 10
e 2 11
e 2 13
e 3 4
e 3 5
e 3 7
e 3 8
e 3 11
e 3 13
e 3 14
e 4 7
e 4 8
e 4 9
e 4 10
e 4 11
e 4 12
e 4 13
e 4 14
e 5 6
e 5 7
e 5 9
e 5 10
e 5 11
e 5 12
e 5 13
e 6 8
e 6 13
e 6 14
e 7 8
e 7 10
e 7 11
e 7 12
e 7 14
e 8 9
e 8 10
e 8 11
e 8 12
e 8 14
e 9 10
e 9 11
e 9 13
e 10 12
e 10 13
e 10 14
e 11 13
e 11 14
e 12 13
e 13 14