SumColouring/MiniZinc model/Experiments/14_0.60_2.col.dzn
% Data file generated from RandomInstances/14_0.60_2.col DIMACS file
size = 14;

chi = 6;

adjacency = [|0,1,1,0,0,0,1,1,1,1,1,0,1,0,
|1,0,0,0,0,0,0,0,1,1,1,0,1,0,
|1,0,0,1,1,0,1,1,0,0,1,0,1,1,
|0,0,1,0,0,0,1,1,1,1,1,1,1,1,
|0,0,1,0,0,1,1,0,1,1,1,1,1,0,
|0,0,0,0,1,0,0,1,0,0,0,0,1,1,
|1,0,1,1,1,0,0,1,0,1,1,1,0,1,
|1,0,1,1,0,1,1,0,1,1,1,1,0,1,
|1,1,0,1,1,0,0,1,0,1,1,0,1,0,
|1,1,0,1,1,0,1,1,1,0,0,1,1,1,
|1,1,1,1,1,0,1,1,1,0,0,0,1,1,
|0,0,0,1,1,0,1,1,0,1,0,0,1,0,
|1,1,1,1,1,1,0,0,1,1,1,1,0,1,
|0,0,1,1,0,1,1,1,0,1,1,0,1,0,
|];